sat
(
  (define-fun C5_VM3 () Int
    0)
  (define-fun ProcProv6 () Int
    1800)
  (define-fun VM3Type () Int
    0)
  (define-fun MemProv5 () Int
    28350)
  (define-fun VM4Type () Int
    1)
  (define-fun C1_VM6 () Int
    1)
  (define-fun ProcProv4 () Int
    900)
  (define-fun C5_VM6 () Int
    0)
  (define-fun StorageProv6 () Int
    69000)
  (define-fun C3_VM5 () Int
    0)
  (define-fun C3_VM4 () Int
    0)
  (define-fun C4_VM3 () Int
    0)
  (define-fun C2_VM6 () Int
    0)
  (define-fun VM6Type () Int
    7)
  (define-fun C2_VM5 () Int
    0)
  (define-fun C3_VM1 () Int
    0)
  (define-fun StorageProv1 () Int
    42000)
  (define-fun C4_VM5 () Int
    1)
  (define-fun StorageProv2 () Int
    69000)
  (define-fun VM5Type () Int
    24)
  (define-fun PriceProv4 () Int
    120)
  (define-fun MemProv3 () Int
    6751)
  (define-fun C5_VM4 () Int
    1)
  (define-fun C5_VM2 () Int
    1)
  (define-fun C3_VM6 () Int
    0)
  (define-fun PriceProv3 () Int
    0)
  (define-fun C4_VM2 () Int
    0)
  (define-fun VM1Type () Int
    1)
  (define-fun PriceProv6 () Int
    240)
  (define-fun C4_VM6 () Int
    0)
  (define-fun C3_VM2 () Int
    1)
  (define-fun C5_VM1 () Int
    1)
  (define-fun C2_VM1 () Int
    1)
  (define-fun C3_VM3 () Int
    0)
  (define-fun C2_VM3 () Int
    0)
  (define-fun VM2Type () Int
    7)
  (define-fun C2_VM2 () Int
    0)
  (define-fun C4_VM1 () Int
    0)
  (define-fun C2_VM4 () Int
    1)
  (define-fun StorageProv5 () Int
    87000)
  (define-fun C1_VM2 () Int
    0)
  (define-fun MemProv2 () Int
    3150)
  (define-fun ProcProv1 () Int
    900)
  (define-fun MemProv6 () Int
    3150)
  (define-fun PriceProv5 () Int
    1680)
  (define-fun C4_VM4 () Int
    0)
  (define-fun MemProv1 () Int
    1350)
  (define-fun ProcProv5 () Int
    3600)
  (define-fun StorageProv3 () Int
    141001)
  (define-fun ProcProv3 () Int
    7201)
  (define-fun ProcProv2 () Int
    1800)
  (define-fun C1_VM4 () Int
    0)
  (define-fun StorageProv4 () Int
    42000)
  (define-fun C1_VM3 () Int
    0)
  (define-fun C1_VM5 () Int
    0)
  (define-fun PriceProv2 () Int
    240)
  (define-fun PriceProv1 () Int
    120)
  (define-fun C5_VM5 () Int
    0)
  (define-fun MemProv4 () Int
    1350)
  (define-fun C1_VM1 () Int
    0)
)
(objectives
 ((+ 0 PriceProv1 PriceProv2 PriceProv3 PriceProv4 PriceProv5 PriceProv6) 2400)
)
(:added-eqs                   99859
 :arith-eq-adapter            8293
 :arith-bound-propagations-lp 17525
 :arith-conflicts             113
 :arith-diseq                 119988
 :arith-fixed-eqs             737
 :arith-lower                 181795
 :arith-make-feasible         15528
 :arith-max-columns           120
 :arith-max-rows              20
 :arith-upper                 92407
 :binary-propagations         610832
 :conflicts                   3119
 :decisions                   32524
 :del-clause                  23828
 :final-checks                53
 :max-memory                  43.34
 :memory                      43.34
 :minimized-lits              22205
 :mk-bool-var                 17117
 :mk-clause                   25155
 :mk-clause-binary            2922
 :num-allocs                  23234430
 :num-checks                  42
 :pb-conflicts                848
 :pb-predicates               318
 :pb-propagations             3181
 :pb-resolves                 837
 :propagations                1025045
 :restarts                    26
 :rlimit-count                5139038
 :solve-eqs-elim-vars         1
 :solve-eqs-steps             10
 :time                        0.24
 :total-time                  0.25)
